datasets/2-dimensional/CL_10_24_05.vbp
2
100 100 
24
49 47 30
47 34 72
21 46 4
46 40 88
30 44 54
43 32 64
43 41 90
35 43 26
36 43 94
29 42 28
42 39 72
31 40 49
40 28 54
39 26 19
38 20 28
36 25 61
32 36 84
35 33 23
33 26 67
31 31 53
26 28 54
18 23 16
15 20 9
5 13 54
