datasets/2-dimensional/CL_10_24_05.txt
100 100 
0 30 49 47 
1 72 47 34 
2 4 21 46 
3 88 46 40 
4 54 30 44 
5 64 43 32 
6 90 43 41 
7 26 35 43 
8 94 36 43 
9 28 29 42 
10 72 42 39 
11 49 31 40 
12 54 40 28 
13 19 39 26 
14 28 38 20 
15 61 36 25 
16 84 32 36 
17 23 35 33 
18 67 33 26 
19 53 31 31 
20 54 26 28 
21 16 18 23 
22 9 15 20 
23 54 5 13 
